
-0.94
-0.88
-0.84
-0.84
-0.82
-0.8
-0.8
-0.74
-0.68
-0.66
-0.62
-0.62
-0.56
-0.52
-0.44
-0.44
-0.38
-0.38
-0.38
-0.32
-0.32
-0.32
-0.32
-0.32
-0.32
-0.32
-0.32
-0.32
-0.32
-0.32
-0.32
-0.32
-0.32
-0.32
-0.32
-0.32
-0.32
-0.32
-0.32
-0.32